(set-logic HORN)
(set-info :source |
    Benchmark: C_VC
    Output by Princess (http://www.philipp.ruemmer.org/princess.shtml)
|)
(set-info :status sat)
;===============================================================================
; Encoding of Heap sorts and operations
;-------------------------------------------------------------------------------
(define-sort Addr() Int)
(declare-datatypes ((AddrRange 0))
                   (((AddrRange (AddrRangeStart Addr) (AddrRangeSize Int)))))

(declare-datatypes ((HeapObject 0))
                   (((O_Int (getInt Int)) (O_UInt (getUInt Int)) (O_Addr (getAddr Addr)) (defObj))))
(declare-datatypes ((BatchAllocResHeap 0) (AllocResHeap 0) (Heap 0))
                   (((BatchAllocResHeap   (newBatchHeap Heap) (newAddrRange AddrRange)))
                   ((AllocResHeap   (newHeap Heap) (newAddr Addr)))
                    ((HeapCtor (HeapSize Int)
                               (HeapContents (Array Addr HeapObject))))))
(define-fun nullAddr  () Addr 0)
(define-fun validHeap     ((h Heap) (p Addr)) Bool
  (and (>= (HeapSize h) p) (> p 0)))
(define-fun emptyHeap () Heap (
  HeapCtor 0 (( as const (Array Addr HeapObject)) defObj)))
(define-fun readHeap ((h Heap) (p Addr)) HeapObject
  (ite (validHeap h p)
       (select (HeapContents h) p)
       defObj))
(define-fun writeHeap ((h Heap) (p Addr) (o HeapObject)) Heap
  (ite (validHeap h p)
       (HeapCtor (HeapSize h) (store (HeapContents h) p o))
       h))
(define-fun allocHeap   ((h Heap) (o HeapObject)) AllocResHeap
  (AllocResHeap (HeapCtor (+ 1 (HeapSize h))
                    (store (HeapContents h) (+ 1 (HeapSize h)) o))
          (+ 1 (HeapSize h))))
(define-fun Heap-eq     ((h1 Heap) (h2 Heap)) Bool
  (forall ((p Addr))
          (and (= (validHeap h1 p) (validHeap h2 p))
               (= (readHeap h1 p) (readHeap h2 p)))))
(define-fun nthAddrRange((ar AddrRange) (n Int)) Addr
  (ite (and (>= n 0) (< n (AddrRangeSize ar)))
       (+ (AddrRangeStart ar) n)
       nullAddr))
(define-fun withinHeap ((ar AddrRange ) (p Addr)) Bool
  (and (>= p (AddrRangeStart ar)) (< p (+ (AddrRangeStart ar) (AddrRangeSize ar)))))

(declare-fun batchAllocHeap     (Heap Heap HeapObject Int Int) Bool)
(declare-fun batchAllocPostHeap (Heap Heap HeapObject Int) Bool)

(assert (forall ((h1 Heap) (h2 Heap) (o HeapObject) (n1 Int) (n2 Int))
                (=> (and (> n2 0) (batchAllocHeap h1 h2 o n1 n2))
                   (batchAllocHeap h1 (newHeap (allocHeap h2 o)) o n1 (- n2 1)))))
(assert (forall ((h1 Heap) (h2 Heap) (o HeapObject) (n1 Int) (n2 Int))
                (=> (and (<= n2 0) (batchAllocHeap h1 h2 o n1 n2))
                   (batchAllocPostHeap h1 h2 o n1))))

(declare-fun batchWriteHeap     (Heap Heap Addr Addr HeapObject Int Int) Bool)
(declare-fun batchWritePostHeap (Heap Heap Addr HeapObject Int) Bool)

(assert (forall ((h1 Heap) (h2 Heap) (a1 Addr) (a2 Addr) (o HeapObject) (n1 Int) (n2 Int))
                (=> (and (> n2 0) (batchWriteHeap h1 h2 a1 a2 o n1 n2))
                   (batchWriteHeap h1 (writeHeap h2 a2 o) a1 (+ a2 1) o n1 (- n2 1)))))
(assert (forall ((h1 Heap) (h2 Heap) (a1 Addr) (a2 Addr) (o HeapObject) (n1 Int) (n2 Int))
                (=> (and (<= n2 0) (batchWriteHeap h1 h2 a1 a2 o n1 n2))
                   (batchWritePostHeap h1 h2 a1 o n1))))

;===============================================================================
(declare-fun inv_main2 (Heap Int) Bool)
(declare-fun inv_main27 (Heap Int Int Int AddrRange Int Int Int) Bool)
(declare-fun inv_main32 (Heap Int Int Int AddrRange Int Int Int) Bool)
(declare-fun inv_main33 (Heap Int Int Int AddrRange Int Int Int) Bool)
(declare-fun inv_main35 (Heap Int Int Int AddrRange Int Int Int) Bool)
(declare-fun inv_main36 (Heap Int Int Int AddrRange Int Int Int) Bool)
(declare-fun inv_main37 (Heap Int Int Int AddrRange Int Int Int) Bool)
(declare-fun inv_main38 (Heap Int Int Int AddrRange Int Int Int) Bool)
(declare-fun inv_main40 (Heap Int Int Int AddrRange Int Int Int) Bool)
(declare-fun inv_main43 (Heap Int Int Int AddrRange Int Int Int Int) Bool)
(assert (inv_main2 emptyHeap 0))
(assert (forall ((var0 Int) (var1 Int) (var2 AddrRange) (var3 Int) (var4 Int) (var5 Heap) (var6 Int) (var7 Int) (var8 Int) (var9 Int) (var10 Int) (var11 AddrRange) (var12 Int) (var13 Int) (var14 Int) (var15 Heap)) (or (not (and (and (and (and (and (and (and (and (and (and (and (inv_main32 var15 var14 var13 var12 var11 var10 var9 var8) (= var0 var8)) (= var7 var9)) (= var1 var10)) (= var2 var11)) (= var3 var12)) (= var6 var13)) (= var4 var14)) (= var5 (writeHeap var15 (nthAddrRange var11 (+ (* 3 var12) (* (- 1) 3))) (O_Int var10)))) (is-O_Int (readHeap var15 (nthAddrRange var11 (+ (* 3 var12) (* (- 1) 3)))))) (is-O_Int (readHeap var15 (nthAddrRange var11 (+ (* 3 var12) (* (- 1) 3)))))) (<= 0 (+ var7 (* (- 1) var6))))) (inv_main35 var5 var4 var6 var3 var2 var1 var7 var0))))
(assert (forall ((var0 Int) (var1 Int) (var2 AddrRange) (var3 Int) (var4 Int) (var5 Heap) (var6 Int) (var7 Int) (var8 Int) (var9 Int) (var10 Int) (var11 AddrRange) (var12 Int) (var13 Int) (var14 Int) (var15 Heap)) (or (not (and (and (and (and (and (and (and (and (and (and (and (inv_main33 var15 var14 var13 var12 var11 var10 var9 var8) (= var0 var8)) (= var7 var9)) (= var1 var10)) (= var2 var11)) (= var3 var12)) (= var6 var13)) (= var4 var14)) (= var5 (writeHeap var15 (nthAddrRange var11 (+ (* 3 var12) (* (- 1) 3))) (O_Int 0)))) (is-O_Int (readHeap var15 (nthAddrRange var11 (+ (* 3 var12) (* (- 1) 3)))))) (is-O_Int (readHeap var15 (nthAddrRange var11 (+ (* 3 var12) (* (- 1) 3)))))) (<= 0 (+ var7 (* (- 1) var6))))) (inv_main35 var5 var4 var6 var3 var2 var1 var7 var0))))
(assert (forall ((var0 Int) (var1 Int) (var2 Int) (var3 AddrRange) (var4 Int) (var5 Int) (var6 Int) (var7 Heap) (var8 Int) (var9 Int) (var10 Int) (var11 AddrRange) (var12 Int) (var13 Int) (var14 Int) (var15 Heap)) (or (not (and (and (and (and (and (and (and (and (and (and (inv_main37 var15 var14 var13 var12 var11 var10 var9 var8) (= var0 var8)) (= var1 var9)) (= var2 var10)) (= var3 var11)) (= var4 var12)) (= var5 var13)) (= var6 var14)) (= var7 (writeHeap var15 (nthAddrRange var11 (+ (* 3 var12) (* (- 1) 1))) (O_Int var8)))) (is-O_Int (readHeap var15 (nthAddrRange var11 (+ (* 3 var12) (* (- 1) 1)))))) (is-O_Int (readHeap var15 (nthAddrRange var11 (+ (* 3 var12) (* (- 1) 1))))))) (inv_main27 var7 var6 var5 (+ var4 1) var3 var2 var1 var0))))
(assert (forall ((var0 Int) (var1 Int) (var2 Int) (var3 AddrRange) (var4 Int) (var5 Int) (var6 Int) (var7 Heap) (var8 Int) (var9 Int) (var10 Int) (var11 AddrRange) (var12 Int) (var13 Int) (var14 Int) (var15 Heap)) (or (not (and (and (and (and (and (and (and (and (and (and (inv_main38 var15 var14 var13 var12 var11 var10 var9 var8) (= var0 var8)) (= var1 var9)) (= var2 var10)) (= var3 var11)) (= var4 var12)) (= var5 var13)) (= var6 var14)) (= var7 (writeHeap var15 (nthAddrRange var11 (+ (* 3 var12) (* (- 1) 1))) (O_Int 0)))) (is-O_Int (readHeap var15 (nthAddrRange var11 (+ (* 3 var12) (* (- 1) 1)))))) (is-O_Int (readHeap var15 (nthAddrRange var11 (+ (* 3 var12) (* (- 1) 1))))))) (inv_main27 var7 var6 var5 (+ var4 1) var3 var2 var1 var0))))
(assert (forall ((var0 Int) (var1 Int) (var2 Int) (var3 Int) (var4 Int) (var5 Int) (var6 Int) (var7 AddrRange) (var8 AddrRange) (var9 Int) (var10 Int) (var11 Int) (var12 Int) (var13 Int) (var14 Int) (var15 Heap) (var16 Heap) (var17 Int) (var18 Int) (var19 Heap) (var20 Int) (var21 Int) (var22 Int) (var23 Int) (var24 Int) (var25 Int)) (or (not (and (batchAllocHeapPostHeap emptyHeap var15 (O_Int var3) var2) (and (and (and (and (and (and (and (and (and (and (and (and (and (and (and (and (and (and (and (and (and (and (inv_main2 var19 var18) (<= 0 (+ (+ (* (- 1) 1) var2) (* (- 1) 1)))) (= var7 (AddrRange (ite (<= 0 (+ var2 (- 1))) (+ (HeapSize emptyHeap) 1) (HeapSize emptyHeap)) var2))) (= var9 var0)) (= var11 var1)) (= var13 var2)) true) (= var24 0)) (= var13 (+ (* 3 var25) var24))) (or (not (<= 0 (+ (* (- 1) var24) (* (- 1) 1)))) (<= 0 (+ (* (- 1) var13) (* (- 1) 1))))) (or (not (<= 0 (+ var24 (* (- 1) 1)))) (<= 0 (+ var13 (* (- 1) 1))))) (<= 0 (+ (+ (* 1 var24) 3) (* (- 1) 1)))) (<= 0 (+ (+ (* (- 1) var24) 3) (* (- 1) 1)))) (or (and (and (and (and (and (and (= var20 0) (= var13 (+ (* 3 var21) var20))) (or (not (<= 0 (+ (* (- 1) var20) (* (- 1) 1)))) (<= 0 (+ (* (- 1) var13) (* (- 1) 1))))) (or (not (<= 0 (+ var20 (* (- 1) 1)))) (<= 0 (+ var13 (* (- 1) 1))))) (<= 0 (+ (+ (* 1 var20) 3) (* (- 1) 1)))) (<= 0 (+ (+ (* (- 1) var20) 3) (* (- 1) 1)))) (= var17 1)) (and (not (or (not (and (and (and (and (or (not (<= 0 (+ (* (- 1) var22) (* (- 1) 1)))) (<= 0 (+ (* (- 1) var13) (* (- 1) 1)))) (or (not (<= 0 (+ var22 (* (- 1) 1)))) (<= 0 (+ var13 (* (- 1) 1))))) (<= 0 (+ (+ (* 1 var22) 3) (* (- 1) 1)))) (<= 0 (+ (+ (* (- 1) var22) 3) (* (- 1) 1)))) (= var13 (+ (* 3 var23) var22)))) (= var22 0))) (= var17 0)))) (= var4 1)) (= var5 3)) (= var6 7)) (= var8 var7)) (= var10 var9)) (= var12 var11)) (= var14 var13)) (= var16 var15)) (not (= var17 0))))) (inv_main27 var16 var14 var12 1 var8 var6 var5 var4))))
(assert (forall ((var0 Int) (var1 Int) (var2 Int) (var3 Int) (var4 Int) (var5 Int) (var6 Int) (var7 AddrRange) (var8 AddrRange) (var9 Int) (var10 Int) (var11 Int) (var12 Int) (var13 Int) (var14 Int) (var15 Heap) (var16 Heap) (var17 Int) (var18 Int) (var19 Heap) (var20 Int) (var21 Int) (var22 Int) (var23 Int) (var24 Int) (var25 Int)) (or (not (and (and (and (and (and (and (and (and (and (and (and (and (and (and (and (and (and (and (and (and (and (and (inv_main2 var19 var18) (<= 0 (+ (+ (* (- 1) 1) var2) (* (- 1) 1)))) (= var7 (AddrRange (ite (<= 0 (+ var2 (- 1))) (+ (HeapSize emptyHeap) 1) (HeapSize emptyHeap)) var2))) (= var9 var0)) (= var11 var1)) (= var13 var2)) true) (= var24 0)) (= var13 (+ (* 3 var25) var24))) (or (not (<= 0 (+ (* (- 1) var24) (* (- 1) 1)))) (<= 0 (+ (* (- 1) var13) (* (- 1) 1))))) (or (not (<= 0 (+ var24 (* (- 1) 1)))) (<= 0 (+ var13 (* (- 1) 1))))) (<= 0 (+ (+ (* 1 var24) 3) (* (- 1) 1)))) (<= 0 (+ (+ (* (- 1) var24) 3) (* (- 1) 1)))) (or (and (and (and (and (and (and (= var20 0) (= var13 (+ (* 3 var21) var20))) (or (not (<= 0 (+ (* (- 1) var20) (* (- 1) 1)))) (<= 0 (+ (* (- 1) var13) (* (- 1) 1))))) (or (not (<= 0 (+ var20 (* (- 1) 1)))) (<= 0 (+ var13 (* (- 1) 1))))) (<= 0 (+ (+ (* 1 var20) 3) (* (- 1) 1)))) (<= 0 (+ (+ (* (- 1) var20) 3) (* (- 1) 1)))) (= var17 1)) (and (not (or (not (and (and (and (and (or (not (<= 0 (+ (* (- 1) var22) (* (- 1) 1)))) (<= 0 (+ (* (- 1) var13) (* (- 1) 1)))) (or (not (<= 0 (+ var22 (* (- 1) 1)))) (<= 0 (+ var13 (* (- 1) 1))))) (<= 0 (+ (+ (* 1 var22) 3) (* (- 1) 1)))) (<= 0 (+ (+ (* (- 1) var22) 3) (* (- 1) 1)))) (= var13 (+ (* 3 var23) var22)))) (= var22 0))) (= var17 0)))) (= var4 1)) (= var5 3)) (= var6 7)) (= var8 var7)) (= var10 var9)) (= var12 var11)) (= var14 var13)) (= var16 var15)) (not (= var17 0)))) (batchAllocHeap emptyHeap emptyHeap (O_Int var3) var2 var2))))
(assert (forall ((var0 Int) (var1 Int) (var2 AddrRange) (var3 Int) (var4 Int) (var5 Heap) (var6 Int) (var7 Int) (var8 Int) (var9 Int) (var10 Int) (var11 AddrRange) (var12 Int) (var13 Int) (var14 Int) (var15 Heap)) (or (not (and (and (and (and (and (and (and (and (and (and (and (inv_main35 var15 var14 var13 var12 var11 var10 var9 var8) (= var7 var8)) (= var0 var9)) (= var1 var10)) (= var2 var11)) (= var3 var12)) (= var6 var13)) (= var4 var14)) (= var5 (writeHeap var15 (nthAddrRange var11 (+ (* 3 var12) (* (- 1) 2))) (O_Int var9)))) (is-O_Int (readHeap var15 (nthAddrRange var11 (+ (* 3 var12) (* (- 1) 2)))))) (is-O_Int (readHeap var15 (nthAddrRange var11 (+ (* 3 var12) (* (- 1) 2)))))) (not (<= 0 (+ var7 (* (- 1) var6)))))) (inv_main38 var5 var4 var6 var3 var2 var1 var0 var7))))
(assert (forall ((var0 Int) (var1 Int) (var2 AddrRange) (var3 Int) (var4 Int) (var5 Heap) (var6 Int) (var7 Int) (var8 Int) (var9 Int) (var10 Int) (var11 AddrRange) (var12 Int) (var13 Int) (var14 Int) (var15 Heap)) (or (not (and (and (and (and (and (and (and (and (and (and (and (inv_main36 var15 var14 var13 var12 var11 var10 var9 var8) (= var7 var8)) (= var0 var9)) (= var1 var10)) (= var2 var11)) (= var3 var12)) (= var6 var13)) (= var4 var14)) (= var5 (writeHeap var15 (nthAddrRange var11 (+ (* 3 var12) (* (- 1) 2))) (O_Int 0)))) (is-O_Int (readHeap var15 (nthAddrRange var11 (+ (* 3 var12) (* (- 1) 2)))))) (is-O_Int (readHeap var15 (nthAddrRange var11 (+ (* 3 var12) (* (- 1) 2)))))) (not (<= 0 (+ var7 (* (- 1) var6)))))) (inv_main38 var5 var4 var6 var3 var2 var1 var0 var7))))
(assert (forall ((var0 Int) (var1 Int) (var2 Int) (var3 Int) (var4 AddrRange) (var5 Int) (var6 Int) (var7 Int) (var8 Heap) (var9 Int) (var10 Int) (var11 Int) (var12 AddrRange) (var13 Int) (var14 Int) (var15 Int) (var16 Heap)) (or (not (and (and (and (and (and (and (and (and (and (and (and (and (inv_main40 var16 var15 var14 var13 var12 var11 var10 var9) (or (and (= (getInt (readHeap var16 (nthAddrRange var12 var13))) 0) (= var0 1)) (and (not (= (getInt (readHeap var16 (nthAddrRange var12 var13))) 0)) (= var0 0)))) (= var1 var9)) (= var2 var10)) (= var3 var11)) (= var4 var12)) (= var5 var13)) (= var6 var14)) (= var7 var15)) (= var8 var16)) (is-O_Int (readHeap var16 (nthAddrRange var12 var13)))) (not (<= 0 (+ (getInt (readHeap var16 (nthAddrRange var12 var13))) (* (- 1) var14))))) (is-O_Int (readHeap var16 (nthAddrRange var12 var13))))) (inv_main43 var8 var7 var6 var5 var4 var3 var2 var1 var0))))
(assert (forall ((var0 Int) (var1 Int) (var2 Int) (var3 AddrRange) (var4 Int) (var5 Int) (var6 Int) (var7 Heap)) (or (not (and (and (inv_main40 var7 var6 var5 var4 var3 var2 var1 var0) (<= 0 (+ (getInt (readHeap var7 (nthAddrRange var3 var4))) (* (- 1) var5)))) (is-O_Int (readHeap var7 (nthAddrRange var3 var4))))) (inv_main43 var7 var6 var5 var4 var3 var2 var1 var0 1))))
(assert (forall ((var0 Int) (var1 Int) (var2 AddrRange) (var3 Int) (var4 Int) (var5 Heap) (var6 Int) (var7 Int) (var8 Int) (var9 Int) (var10 Int) (var11 AddrRange) (var12 Int) (var13 Int) (var14 Int) (var15 Heap)) (or (not (and (and (and (and (and (and (and (and (and (and (and (inv_main32 var15 var14 var13 var12 var11 var10 var9 var8) (= var0 var8)) (= var7 var9)) (= var1 var10)) (= var2 var11)) (= var3 var12)) (= var6 var13)) (= var4 var14)) (= var5 (writeHeap var15 (nthAddrRange var11 (+ (* 3 var12) (* (- 1) 3))) (O_Int var10)))) (is-O_Int (readHeap var15 (nthAddrRange var11 (+ (* 3 var12) (* (- 1) 3)))))) (is-O_Int (readHeap var15 (nthAddrRange var11 (+ (* 3 var12) (* (- 1) 3)))))) (not (<= 0 (+ var7 (* (- 1) var6)))))) (inv_main36 var5 var4 var6 var3 var2 var1 var7 var0))))
(assert (forall ((var0 Int) (var1 Int) (var2 AddrRange) (var3 Int) (var4 Int) (var5 Heap) (var6 Int) (var7 Int) (var8 Int) (var9 Int) (var10 Int) (var11 AddrRange) (var12 Int) (var13 Int) (var14 Int) (var15 Heap)) (or (not (and (and (and (and (and (and (and (and (and (and (and (inv_main33 var15 var14 var13 var12 var11 var10 var9 var8) (= var0 var8)) (= var7 var9)) (= var1 var10)) (= var2 var11)) (= var3 var12)) (= var6 var13)) (= var4 var14)) (= var5 (writeHeap var15 (nthAddrRange var11 (+ (* 3 var12) (* (- 1) 3))) (O_Int 0)))) (is-O_Int (readHeap var15 (nthAddrRange var11 (+ (* 3 var12) (* (- 1) 3)))))) (is-O_Int (readHeap var15 (nthAddrRange var11 (+ (* 3 var12) (* (- 1) 3)))))) (not (<= 0 (+ var7 (* (- 1) var6)))))) (inv_main36 var5 var4 var6 var3 var2 var1 var7 var0))))
(assert (forall ((var0 Int) (var1 Int) (var2 AddrRange) (var3 Int) (var4 Int) (var5 Heap) (var6 Int) (var7 Int) (var8 Int) (var9 Int) (var10 Int) (var11 AddrRange) (var12 Int) (var13 Int) (var14 Int) (var15 Heap)) (or (not (and (and (and (and (and (and (and (and (and (and (and (inv_main35 var15 var14 var13 var12 var11 var10 var9 var8) (= var7 var8)) (= var0 var9)) (= var1 var10)) (= var2 var11)) (= var3 var12)) (= var6 var13)) (= var4 var14)) (= var5 (writeHeap var15 (nthAddrRange var11 (+ (* 3 var12) (* (- 1) 2))) (O_Int var9)))) (is-O_Int (readHeap var15 (nthAddrRange var11 (+ (* 3 var12) (* (- 1) 2)))))) (is-O_Int (readHeap var15 (nthAddrRange var11 (+ (* 3 var12) (* (- 1) 2)))))) (<= 0 (+ var7 (* (- 1) var6))))) (inv_main37 var5 var4 var6 var3 var2 var1 var0 var7))))
(assert (forall ((var0 Int) (var1 Int) (var2 AddrRange) (var3 Int) (var4 Int) (var5 Heap) (var6 Int) (var7 Int) (var8 Int) (var9 Int) (var10 Int) (var11 AddrRange) (var12 Int) (var13 Int) (var14 Int) (var15 Heap)) (or (not (and (and (and (and (and (and (and (and (and (and (and (inv_main36 var15 var14 var13 var12 var11 var10 var9 var8) (= var7 var8)) (= var0 var9)) (= var1 var10)) (= var2 var11)) (= var3 var12)) (= var6 var13)) (= var4 var14)) (= var5 (writeHeap var15 (nthAddrRange var11 (+ (* 3 var12) (* (- 1) 2))) (O_Int 0)))) (is-O_Int (readHeap var15 (nthAddrRange var11 (+ (* 3 var12) (* (- 1) 2)))))) (is-O_Int (readHeap var15 (nthAddrRange var11 (+ (* 3 var12) (* (- 1) 2)))))) (<= 0 (+ var7 (* (- 1) var6))))) (inv_main37 var5 var4 var6 var3 var2 var1 var0 var7))))
(assert (forall ((var0 Int) (var1 Int) (var2 Int) (var3 AddrRange) (var4 Int) (var5 Int) (var6 Int) (var7 Heap) (var8 Int)) (or (not (and (and (and (and (and (and (inv_main27 var7 var6 var5 var4 var3 var2 var1 var0) (<= 0 (+ var8 (* (- 1) var4)))) (or (not (<= 0 (+ (* (- 1) (+ var6 (* (- 3) var8))) (* (- 1) 1)))) (<= 0 (+ (* (- 1) var6) (* (- 1) 1))))) (or (not (<= 0 (+ (+ (* (- 3) var8) var6) (* (- 1) 1)))) (<= 0 (+ var6 (* (- 1) 1))))) (<= 0 (+ (+ (* 1 (+ var6 (* (- 3) var8))) 3) (* (- 1) 1)))) (<= 0 (+ (+ (* (- 1) (+ var6 (* (- 3) var8))) 3) (* (- 1) 1)))) (not (<= 0 (+ var2 (* (- 1) var5)))))) (inv_main33 var7 var6 var5 var4 var3 var2 var1 var0))))
(assert (forall ((var0 Int) (var1 Int) (var2 Int) (var3 AddrRange) (var4 Int) (var5 Int) (var6 Int) (var7 Heap) (var8 Int)) (or (not (and (and (and (and (and (and (inv_main27 var7 var6 var5 var4 var3 var2 var1 var0) (<= 0 (+ var8 (* (- 1) var4)))) (or (not (<= 0 (+ (* (- 1) (+ var6 (* (- 3) var8))) (* (- 1) 1)))) (<= 0 (+ (* (- 1) var6) (* (- 1) 1))))) (or (not (<= 0 (+ (+ (* (- 3) var8) var6) (* (- 1) 1)))) (<= 0 (+ var6 (* (- 1) 1))))) (<= 0 (+ (+ (* 1 (+ var6 (* (- 3) var8))) 3) (* (- 1) 1)))) (<= 0 (+ (+ (* (- 1) (+ var6 (* (- 3) var8))) 3) (* (- 1) 1)))) (<= 0 (+ var2 (* (- 1) var5))))) (inv_main32 var7 var6 var5 var4 var3 var2 var1 var0))))
(assert (forall ((var0 Int) (var1 Int) (var2 Int) (var3 AddrRange) (var4 Int) (var5 Int) (var6 Int) (var7 Heap) (var8 Int)) (or (not (and (and (inv_main27 var7 var6 var5 var4 var3 var2 var1 var0) (not (or (not (and (and (and (or (not (<= 0 (+ (+ (* (- 3) var8) var6) (* (- 1) 1)))) (<= 0 (+ var6 (* (- 1) 1)))) (<= 0 (+ (+ (* 1 (+ var6 (* (- 3) var8))) 3) (* (- 1) 1)))) (<= 0 (+ (+ (* (- 1) (+ var6 (* (- 3) var8))) 3) (* (- 1) 1)))) (or (not (<= 0 (+ (* (- 1) (+ var6 (* (- 3) var8))) (* (- 1) 1)))) (<= 0 (+ (* (- 1) var6) (* (- 1) 1)))))) (<= 0 (+ var8 (* (- 1) var4)))))) (<= 0 (+ var6 (* (- 1) 1))))) (inv_main40 var7 var6 var5 0 var3 var2 var1 var0))))
(assert (forall ((var0 Int) (var1 Int) (var2 Int) (var3 Int) (var4 AddrRange) (var5 Int) (var6 Int) (var7 Int) (var8 Heap)) (or (not (and (inv_main43 var8 var7 var6 var5 var4 var3 var2 var1 var0) (<= 0 (+ (+ (* (- 1) (+ var5 1)) var7) (* (- 1) 1))))) (inv_main40 var8 var7 var6 (+ var5 1) var4 var3 var2 var1))))
(assert (forall ((var0 Int) (var1 Int) (var2 Int) (var3 AddrRange) (var4 Int) (var5 Int) (var6 Int) (var7 Heap)) (not (and (inv_main32 var7 var6 var5 var4 var3 var2 var1 var0) (not (is-O_Int (readHeap var7 (nthAddrRange var3 (+ (* 3 var4) (* (- 1) 3))))))))))
(assert (forall ((var0 Int) (var1 Int) (var2 Int) (var3 AddrRange) (var4 Int) (var5 Int) (var6 Int) (var7 Heap)) (not (and (and (inv_main32 var7 var6 var5 var4 var3 var2 var1 var0) (not (withinHeap var3 (nthAddrRange var3 (+ (* 3 var4) (* (- 1) 3)))))) (is-O_Int (readHeap var7 (nthAddrRange var3 (+ (* 3 var4) (* (- 1) 3)))))))))
(assert (forall ((var0 Int) (var1 Int) (var2 Int) (var3 AddrRange) (var4 Int) (var5 Int) (var6 Int) (var7 Heap)) (not (and (and (inv_main32 var7 var6 var5 var4 var3 var2 var1 var0) (not (is-O_Int (readHeap var7 (nthAddrRange var3 (+ (* 3 var4) (* (- 1) 3))))))) (is-O_Int (readHeap var7 (nthAddrRange var3 (+ (* 3 var4) (* (- 1) 3)))))))))
(assert (forall ((var0 Int) (var1 Int) (var2 Int) (var3 AddrRange) (var4 Int) (var5 Int) (var6 Int) (var7 Heap)) (not (and (inv_main33 var7 var6 var5 var4 var3 var2 var1 var0) (not (is-O_Int (readHeap var7 (nthAddrRange var3 (+ (* 3 var4) (* (- 1) 3))))))))))
(assert (forall ((var0 Int) (var1 Int) (var2 Int) (var3 AddrRange) (var4 Int) (var5 Int) (var6 Int) (var7 Heap)) (not (and (and (inv_main33 var7 var6 var5 var4 var3 var2 var1 var0) (not (withinHeap var3 (nthAddrRange var3 (+ (* 3 var4) (* (- 1) 3)))))) (is-O_Int (readHeap var7 (nthAddrRange var3 (+ (* 3 var4) (* (- 1) 3)))))))))
(assert (forall ((var0 Int) (var1 Int) (var2 Int) (var3 AddrRange) (var4 Int) (var5 Int) (var6 Int) (var7 Heap)) (not (and (and (inv_main33 var7 var6 var5 var4 var3 var2 var1 var0) (not (is-O_Int (readHeap var7 (nthAddrRange var3 (+ (* 3 var4) (* (- 1) 3))))))) (is-O_Int (readHeap var7 (nthAddrRange var3 (+ (* 3 var4) (* (- 1) 3)))))))))
(assert (forall ((var0 Int) (var1 Int) (var2 Int) (var3 AddrRange) (var4 Int) (var5 Int) (var6 Int) (var7 Heap)) (not (and (inv_main35 var7 var6 var5 var4 var3 var2 var1 var0) (not (is-O_Int (readHeap var7 (nthAddrRange var3 (+ (* 3 var4) (* (- 1) 2))))))))))
(assert (forall ((var0 Int) (var1 Int) (var2 Int) (var3 AddrRange) (var4 Int) (var5 Int) (var6 Int) (var7 Heap)) (not (and (and (inv_main35 var7 var6 var5 var4 var3 var2 var1 var0) (not (withinHeap var3 (nthAddrRange var3 (+ (* 3 var4) (* (- 1) 2)))))) (is-O_Int (readHeap var7 (nthAddrRange var3 (+ (* 3 var4) (* (- 1) 2)))))))))
(assert (forall ((var0 Int) (var1 Int) (var2 Int) (var3 AddrRange) (var4 Int) (var5 Int) (var6 Int) (var7 Heap)) (not (and (and (inv_main35 var7 var6 var5 var4 var3 var2 var1 var0) (not (is-O_Int (readHeap var7 (nthAddrRange var3 (+ (* 3 var4) (* (- 1) 2))))))) (is-O_Int (readHeap var7 (nthAddrRange var3 (+ (* 3 var4) (* (- 1) 2)))))))))
(assert (forall ((var0 Int) (var1 Int) (var2 Int) (var3 AddrRange) (var4 Int) (var5 Int) (var6 Int) (var7 Heap)) (not (and (inv_main36 var7 var6 var5 var4 var3 var2 var1 var0) (not (is-O_Int (readHeap var7 (nthAddrRange var3 (+ (* 3 var4) (* (- 1) 2))))))))))
(assert (forall ((var0 Int) (var1 Int) (var2 Int) (var3 AddrRange) (var4 Int) (var5 Int) (var6 Int) (var7 Heap)) (not (and (and (inv_main36 var7 var6 var5 var4 var3 var2 var1 var0) (not (withinHeap var3 (nthAddrRange var3 (+ (* 3 var4) (* (- 1) 2)))))) (is-O_Int (readHeap var7 (nthAddrRange var3 (+ (* 3 var4) (* (- 1) 2)))))))))
(assert (forall ((var0 Int) (var1 Int) (var2 Int) (var3 AddrRange) (var4 Int) (var5 Int) (var6 Int) (var7 Heap)) (not (and (and (inv_main36 var7 var6 var5 var4 var3 var2 var1 var0) (not (is-O_Int (readHeap var7 (nthAddrRange var3 (+ (* 3 var4) (* (- 1) 2))))))) (is-O_Int (readHeap var7 (nthAddrRange var3 (+ (* 3 var4) (* (- 1) 2)))))))))
(assert (forall ((var0 Int) (var1 Int) (var2 Int) (var3 AddrRange) (var4 Int) (var5 Int) (var6 Int) (var7 Heap)) (not (and (inv_main37 var7 var6 var5 var4 var3 var2 var1 var0) (not (is-O_Int (readHeap var7 (nthAddrRange var3 (+ (* 3 var4) (* (- 1) 1))))))))))
(assert (forall ((var0 Int) (var1 Int) (var2 Int) (var3 AddrRange) (var4 Int) (var5 Int) (var6 Int) (var7 Heap)) (not (and (and (inv_main37 var7 var6 var5 var4 var3 var2 var1 var0) (not (withinHeap var3 (nthAddrRange var3 (+ (* 3 var4) (* (- 1) 1)))))) (is-O_Int (readHeap var7 (nthAddrRange var3 (+ (* 3 var4) (* (- 1) 1)))))))))
(assert (forall ((var0 Int) (var1 Int) (var2 Int) (var3 AddrRange) (var4 Int) (var5 Int) (var6 Int) (var7 Heap)) (not (and (and (inv_main37 var7 var6 var5 var4 var3 var2 var1 var0) (not (is-O_Int (readHeap var7 (nthAddrRange var3 (+ (* 3 var4) (* (- 1) 1))))))) (is-O_Int (readHeap var7 (nthAddrRange var3 (+ (* 3 var4) (* (- 1) 1)))))))))
(assert (forall ((var0 Int) (var1 Int) (var2 Int) (var3 AddrRange) (var4 Int) (var5 Int) (var6 Int) (var7 Heap)) (not (and (inv_main38 var7 var6 var5 var4 var3 var2 var1 var0) (not (is-O_Int (readHeap var7 (nthAddrRange var3 (+ (* 3 var4) (* (- 1) 1))))))))))
(assert (forall ((var0 Int) (var1 Int) (var2 Int) (var3 AddrRange) (var4 Int) (var5 Int) (var6 Int) (var7 Heap)) (not (and (and (inv_main38 var7 var6 var5 var4 var3 var2 var1 var0) (not (withinHeap var3 (nthAddrRange var3 (+ (* 3 var4) (* (- 1) 1)))))) (is-O_Int (readHeap var7 (nthAddrRange var3 (+ (* 3 var4) (* (- 1) 1)))))))))
(assert (forall ((var0 Int) (var1 Int) (var2 Int) (var3 AddrRange) (var4 Int) (var5 Int) (var6 Int) (var7 Heap)) (not (and (and (inv_main38 var7 var6 var5 var4 var3 var2 var1 var0) (not (is-O_Int (readHeap var7 (nthAddrRange var3 (+ (* 3 var4) (* (- 1) 1))))))) (is-O_Int (readHeap var7 (nthAddrRange var3 (+ (* 3 var4) (* (- 1) 1)))))))))
(assert (forall ((var0 Int) (var1 Int) (var2 Int) (var3 AddrRange) (var4 Int) (var5 Int) (var6 Int) (var7 Heap)) (not (and (inv_main40 var7 var6 var5 var4 var3 var2 var1 var0) (not (is-O_Int (readHeap var7 (nthAddrRange var3 var4))))))))
(assert (forall ((var0 Int) (var1 Int) (var2 Int) (var3 AddrRange) (var4 Int) (var5 Int) (var6 Int) (var7 Heap)) (not (and (inv_main40 var7 var6 var5 var4 var3 var2 var1 var0) (not (withinHeap var3 (nthAddrRange var3 var4)))))))
(assert (forall ((var0 Int) (var1 Int) (var2 Int) (var3 AddrRange) (var4 Int) (var5 Int) (var6 Int) (var7 Heap)) (not (and (inv_main40 var7 var6 var5 var4 var3 var2 var1 var0) (not (is-O_Int (readHeap var7 (nthAddrRange var3 var4))))))))
(assert (forall ((var0 Int) (var1 Int) (var2 Int) (var3 AddrRange) (var4 Int) (var5 Int) (var6 Int) (var7 Heap)) (not (and (inv_main40 var7 var6 var5 var4 var3 var2 var1 var0) (not (withinHeap var3 (nthAddrRange var3 var4)))))))
(assert (forall ((var0 Int) (var1 Int) (var2 Int) (var3 AddrRange) (var4 Int) (var5 Int) (var6 Int) (var7 Heap)) (not (and (inv_main40 var7 var6 var5 var4 var3 var2 var1 var0) (not (is-O_Int (readHeap var7 (nthAddrRange var3 var4))))))))
(assert (forall ((var0 Int) (var1 Int) (var2 Int) (var3 AddrRange) (var4 Int) (var5 Int) (var6 Int) (var7 Heap)) (not (and (and (inv_main40 var7 var6 var5 var4 var3 var2 var1 var0) (not (withinHeap var3 (nthAddrRange var3 var4)))) (is-O_Int (readHeap var7 (nthAddrRange var3 var4)))))))
(assert (forall ((var0 Int) (var1 Int) (var2 Int) (var3 AddrRange) (var4 Int) (var5 Int) (var6 Int) (var7 Heap)) (not (and (and (and (inv_main40 var7 var6 var5 var4 var3 var2 var1 var0) (not (is-O_Int (readHeap var7 (nthAddrRange var3 var4))))) (not (<= 0 (+ (getInt (readHeap var7 (nthAddrRange var3 var4))) (* (- 1) var5))))) (is-O_Int (readHeap var7 (nthAddrRange var3 var4)))))))
(assert (forall ((var0 Int) (var1 Int) (var2 Int) (var3 AddrRange) (var4 Int) (var5 Int) (var6 Int) (var7 Heap)) (not (and (and (and (and (inv_main40 var7 var6 var5 var4 var3 var2 var1 var0) (not (withinHeap var3 (nthAddrRange var3 var4)))) (is-O_Int (readHeap var7 (nthAddrRange var3 var4)))) (not (<= 0 (+ (getInt (readHeap var7 (nthAddrRange var3 var4))) (* (- 1) var5))))) (is-O_Int (readHeap var7 (nthAddrRange var3 var4)))))))
(assert (forall ((var0 Int) (var1 Int) (var2 Int) (var3 Int) (var4 AddrRange) (var5 Int) (var6 Int) (var7 Int) (var8 Heap)) (not (and (inv_main43 var8 var7 var6 var5 var4 var3 var2 var1 var0) (= var0 0)))))
(check-sat)
